
Gurobi 9.5.0 (win64) logging started Tue Jun  7 18:23:04 2022

Set parameter LogFile to value "C:\Users\kmajd1\Documents\NNRepLayer_v2\demos\examples\tc7_walking_example\v2\repair_bound_constraint\repair_net/logs/opt_log_6_7_2022_18_22_45.log"
Gurobi Optimizer version 9.5.0 build v9.5.0rc5 (win64)
Thread count: 8 physical cores, 16 logical processors, using up to 16 threads
Optimize a model with 366 rows, 134 columns and 1214 nonzeros
Model fingerprint: 0xcc3a6426
Model has 101 quadratic objective terms
Coefficient statistics:
  Matrix range     [1e-03, 1e+01]
  Objective range  [7e-04, 4e-01]
  QObjective range [2e-02, 2e+00]
  Bounds range     [1e+01, 4e+01]
  RHS range        [8e-04, 1e+01]
Presolve removed 211 rows and 6 columns
Presolve time: 0.01s
Presolved: 155 rows, 128 columns, 997 nonzeros
Presolved model has 101 quadratic objective terms
Ordering time: 0.00s

Barrier statistics:
 Dense cols : 9
 AA' NZ     : 1.816e+03
 Factor NZ  : 2.502e+03
 Factor Ops : 5.377e+04 (less than 1 second per iteration)
 Threads    : 1

                  Objective                Residual
Iter       Primal          Dual         Primal    Dual     Compl     Time
   0   1.62083968e+07 -1.70153259e+07  4.24e+03 4.01e+02  8.65e+05     0s
   1   6.63532143e+06 -7.57190893e+06  2.63e+03 2.49e+02  5.84e+05     0s
   2   1.96657234e+04 -1.67135850e+06  1.55e+02 1.47e+01  5.37e+04     0s
   3   1.17206311e+02 -1.46749904e+06  1.55e-04 1.47e-05  4.70e+03     0s
   4   1.16984561e+02 -2.17283437e+03  8.72e-08 8.24e-09  7.34e+00     0s
   5   6.42241882e+01 -2.07108243e+02  9.11e-09 8.61e-10  8.70e-01     0s
   6   1.19611256e+01 -2.01733404e+01  2.49e-14 1.40e-14  1.03e-01     0s
   7   5.70603632e+00 -5.87560926e-01  7.11e-14 2.51e-14  2.02e-02     0s
   8   5.01978894e+00  3.37615819e+00  6.04e-13 3.59e-14  5.27e-03     0s
   9   4.86544943e+00  4.80281868e+00  3.98e-13 3.90e-13  2.01e-04     0s
  10   4.85341575e+00  4.84978853e+00  1.41e-11 4.60e-12  1.16e-05     0s
  11   4.85275348e+00  4.85267641e+00  2.07e-11 1.47e-12  2.47e-07     0s
  12   4.85273322e+00  4.85273053e+00  3.75e-10 6.79e-11  8.61e-09     0s
  13   4.85273269e+00  4.85273246e+00  1.54e-10 3.82e-13  7.59e-10     0s

Barrier solved model in 13 iterations and 0.04 seconds (0.00 work units)
Optimal objective 4.85273269e+00

